161409.16,54.04,67.01
146943.66,59.36,73.61
163943.29,53.2,65.98
166548.79,52.37,64.95
184792.94,47.2,58.54
173541.99,50.26,62.33
170230.28,51.24,63.54
165795.63,52.61,65.24
170642.95,51.12,63.39
164588.4,53.0,65.72
172153.89,50.67,62.83
164859.44,52.91,65.61
172628.27,50.53,62.66
153909.24,56.67,70.28
166585.72,52.36,64.93
155719.1,56.01,69.46
180374.22,48.36,59.97
157259.43,55.47,68.78
172068.09,50.69,62.86
145059.7,60.13,74.57
